-35 -36 -39 0
23 21 35 0
-26 35 -36 0
-23 -36 -37 -38 -39 0
-36 -37 -38 -39 0
d -23 -36 -37 -38 -39 0
23 36 -37 -39 0
21 5 36 -39 0
-21 -39 0
22 36 -39 0
36 -39 21 0
d 5 36 21 -39 0
-39 21 0
d 36 -39 21 0
-39 0
21 0
-17 0
-25 0
-22 -36 0
-36 0
22 0
-4 0
-26 0
-3 0
-18 0
23 0
20 0
1 0
-27 0
-19 0
-5 0
-33 0
-2 0
-16 0
-10 0
-24 0
-38 0
-11 0
-12 0
-30 0
-31 0
-32 0
-13 0
0
